p edge 130 2704 104
e 1 2
e 1 3
e 1 4
e 1 5
e 1 6
e 1 7
e 1 8
e 1 9
e 1 10
e 1 11
e 1 12
e 1 13
e 1 14
e 1 15
e 1 16
e 1 17
e 1 18
e 1 19
e 1 20
e 1 21
e 1 22
e 1 23
e 1 24
e 1 25
e 1 26
e 1 27
e 1 28
e 1 29
e 1 30
e 1 31
e 1 32
e 1 33
e 1 34
e 1 35
e 1 36
e 1 37
e 1 38
e 1 39
e 1 40
e 1 41
e 1 42
e 1 43
e 1 44
e 1 45
e 1 46
e 1 47
e 1 48
e 1 49
e 1 50
e 1 52
e 1 55
e 1 56
e 1 58
e 1 59
e 1 61
e 1 62
e 1 64
e 1 65
e 1 66
e 1 67
e 1 68
e 1 69
e 1 70
e 1 71
e 1 72
e 1 74
e 1 75
e 1 77
e 1 78
e 1 79
e 1 81
e 1 82
e 1 83
e 1 85
e 1 86
e 1 87
e 1 91
e 1 92
e 1 95
e 1 100
e 1 101
e 1 102
e 1 103
e 1 107
e 1 110
e 1 111
e 1 112
e 1 114
e 1 115
e 1 116
e 1 117
e 1 118
e 1 119
e 1 127
e 1 128
e 1 129
e 1 130
e 2 28
e 2 29
e 2 30
e 2 31
e 2 32
e 2 33
e 2 34
e 2 35
e 2 36
e 2 39
e 2 41
e 2 43
e 2 44
e 2 47
e 2 52
e 2 54
e 2 60
e 2 64
e 2 74
e 2 75
e 2 76
e 2 81
e 2 82
e 2 99
e 2 108
e 2 120
e 2 121
e 2 126
e 2 129
e 3 28
e 3 29
e 3 30
e 3 31
e 3 32
e 3 35
e 3 38
e 3 41
e 3 42
e 3 44
e 3 47
e 3 48
e 3 51
e 3 53
e 3 56
e 3 59
e 3 62
e 3 63
e 3 65
e 3 67
e 3 71
e 3 84
e 3 87
e 3 88
e 3 92
e 3 93
e 3 97
e 3 98
e 3 103
e 3 107
e 3 109
e 3 116
e 3 118
e 3 127
e 4 28
e 4 29
e 4 30
e 4 32
e 4 33
e 4 34
e 4 35
e 4 36
e 4 37
e 4 38
e 4 39
e 4 40
e 4 41
e 4 43
e 4 47
e 4 49
e 4 50
e 4 52
e 4 56
e 4 60
e 4 72
e 4 73
e 4 75
e 4 88
e 4 90
e 4 116
e 4 117
e 4 127
e 5 28
e 5 29
e 5 30
e 5 31
e 5 34
e 5 40
e 5 41
e 5 43
e 5 46
e 5 47
e 5 48
e 5 51
e 5 54
e 5 57
e 5 59
e 5 60
e 5 61
e 5 62
e 5 64
e 5 65
e 5 67
e 5 68
e 5 74
e 5 78
e 5 82
e 5 105
e 5 109
e 5 112
e 6 28
e 6 29
e 6 30
e 6 31
e 6 32
e 6 33
e 6 34
e 6 35
e 6 36
e 6 37
e 6 38
e 6 40
e 6 41
e 6 42
e 6 43
e 6 44
e 6 46
e 6 47
e 6 48
e 6 49
e 6 52
e 6 55
e 6 56
e 6 60
e 6 62
e 6 66
e 6 67
e 6 71
e 6 75
e 6 77
e 6 78
e 6 80
e 6 81
e 6 86
e 6 88
e 6 89
e 6 92
e 6 93
e 6 95
e 6 98
e 6 101
e 6 105
e 6 106
e 6 107
e 6 108
e 6 111
e 6 117
e 6 122
e 6 124
e 6 127
e 6 129
e 7 28
e 7 29
e 7 30
e 7 31
e 7 32
e 7 33
e 7 34
e 7 35
e 7 36
e 7 37
e 7 38
e 7 39
e 7 40
e 7 41
e 7 42
e 7 43
e 7 44
e 7 45
e 7 48
e 7 49
e 7 52
e 7 54
e 7 55
e 7 58
e 7 59
e 7 60
e 7 62
e 7 63
e 7 66
e 7 68
e 7 72
e 7 73
e 7 78
e 7 82
e 7 90
e 7 93
e 7 94
e 7 98
e 7 99
e 7 100
e 7 102
e 7 106
e 7 111
e 7 112
e 7 123
e 7 124
e 8 28
e 8 29
e 8 30
e 8 31
e 8 32
e 8 33
e 8 35
e 8 36
e 8 37
e 8 41
e 8 51
e 8 52
e 8 54
e 8 60
e 8 61
e 8 63
e 8 64
e 8 67
e 8 71
e 8 78
e 8 80
e 8 81
e 8 87
e 8 90
e 8 91
e 8 94
e 8 95
e 8 97
e 8 99
e 8 100
e 8 101
e 8 107
e 8 109
e 8 117
e 8 122
e 8 126
e 8 128
e 9 28
e 9 29
e 9 30
e 9 31
e 9 32
e 9 33
e 9 34
e 9 35
e 9 36
e 9 37
e 9 38
e 9 39
e 9 43
e 9 44
e 9 45
e 9 46
e 9 48
e 9 50
e 9 52
e 9 53
e 9 55
e 9 56
e 9 58
e 9 61
e 9 63
e 9 64
e 9 69
e 9 70
e 9 72
e 9 73
e 9 75
e 9 78
e 9 79
e 9 87
e 9 91
e 9 96
e 9 120
e 9 129
e 10 28
e 10 29
e 10 30
e 10 31
e 10 32
e 10 33
e 10 35
e 10 36
e 10 37
e 10 38
e 10 40
e 10 41
e 10 43
e 10 45
e 10 46
e 10 50
e 10 54
e 10 55
e 10 56
e 10 78
e 10 81
e 10 83
e 10 88
e 10 96
e 10 102
e 10 103
e 10 114
e 10 124
e 11 28
e 11 30
e 11 31
e 11 33
e 11 34
e 11 38
e 11 42
e 11 45
e 11 48
e 11 57
e 11 58
e 11 66
e 11 68
e 11 72
e 11 75
e 11 78
e 11 79
e 11 90
e 11 96
e 11 100
e 11 102
e 11 105
e 11 107
e 11 108
e 11 113
e 11 116
e 11 117
e 11 118
e 11 120
e 11 127
e 12 28
e 12 29
e 12 30
e 12 33
e 12 34
e 12 36
e 12 37
e 12 38
e 12 42
e 12 44
e 12 48
e 12 50
e 12 51
e 12 55
e 12 66
e 12 69
e 12 73
e 12 74
e 12 83
e 12 84
e 12 93
e 12 103
e 12 121
e 12 122
e 12 124
e 12 125
e 12 129
e 13 28
e 13 29
e 13 30
e 13 31
e 13 32
e 13 33
e 13 34
e 13 35
e 13 37
e 13 38
e 13 39
e 13 40
e 13 42
e 13 46
e 13 47
e 13 48
e 13 53
e 13 57
e 13 61
e 13 62
e 13 68
e 13 71
e 13 75
e 13 78
e 13 84
e 13 85
e 13 87
e 13 89
e 13 92
e 13 93
e 13 98
e 13 101
e 13 105
e 13 106
e 13 116
e 13 118
e 13 125
e 14 28
e 14 29
e 14 30
e 14 31
e 14 32
e 14 33
e 14 34
e 14 36
e 14 37
e 14 40
e 14 42
e 14 43
e 14 45
e 14 46
e 14 48
e 14 51
e 14 55
e 14 57
e 14 68
e 14 70
e 14 71
e 14 72
e 14 73
e 14 78
e 14 79
e 14 81
e 14 84
e 14 102
e 14 117
e 14 119
e 14 129
e 15 28
e 15 29
e 15 30
e 15 31
e 15 32
e 15 33
e 15 34
e 15 35
e 15 36
e 15 38
e 15 39
e 15 40
e 15 41
e 15 42
e 15 45
e 15 47
e 15 48
e 15 49
e 15 50
e 15 51
e 15 53
e 15 54
e 15 56
e 15 57
e 15 62
e 15 63
e 15 65
e 15 68
e 15 76
e 15 78
e 15 83
e 15 86
e 15 89
e 15 97
e 15 101
e 15 112
e 15 115
e 15 120
e 15 122
e 15 128
e 16 28
e 16 29
e 16 30
e 16 31
e 16 32
e 16 33
e 16 34
e 16 35
e 16 37
e 16 38
e 16 39
e 16 40
e 16 42
e 16 43
e 16 46
e 16 48
e 16 58
e 16 59
e 16 60
e 16 64
e 16 70
e 16 73
e 16 74
e 16 75
e 16 76
e 16 83
e 16 86
e 16 93
e 16 95
e 16 100
e 16 101
e 16 102
e 16 103
e 16 104
e 16 106
e 16 109
e 16 115
e 16 117
e 16 119
e 16 121
e 16 128
e 17 28
e 17 29
e 17 30
e 17 31
e 17 32
e 17 33
e 17 34
e 17 35
e 17 36
e 17 39
e 17 41
e 17 43
e 17 45
e 17 46
e 17 50
e 17 52
e 17 53
e 17 65
e 17 66
e 17 67
e 17 69
e 17 70
e 17 76
e 17 77
e 17 81
e 17 82
e 17 85
e 17 88
e 17 90
e 17 93
e 17 94
e 17 101
e 17 115
e 17 117
e 17 126
e 18 28
e 18 29
e 18 31
e 18 32
e 18 33
e 18 34
e 18 36
e 18 39
e 18 42
e 18 43
e 18 44
e 18 47
e 18 49
e 18 50
e 18 58
e 18 74
e 18 93
e 18 96
e 18 119
e 19 28
e 19 29
e 19 30
e 19 31
e 19 32
e 19 33
e 19 34
e 19 36
e 19 37
e 19 38
e 19 41
e 19 44
e 19 45
e 19 47
e 19 48
e 19 49
e 19 51
e 19 53
e 19 56
e 19 58
e 19 59
e 19 62
e 19 63
e 19 85
e 19 97
e 19 102
e 19 109
e 19 116
e 19 117
e 20 28
e 20 29
e 20 30
e 20 31
e 20 33
e 20 35
e 20 36
e 20 37
e 20 38
e 20 39
e 20 40
e 20 42
e 20 43
e 20 44
e 20 47
e 20 48
e 20 49
e 20 50
e 20 51
e 20 53
e 20 57
e 20 61
e 20 64
e 20 68
e 20 71
e 20 73
e 20 76
e 20 77
e 20 80
e 20 82
e 20 85
e 20 104
e 21 28
e 21 29
e 21 31
e 21 32
e 21 33
e 21 34
e 21 35
e 21 37
e 21 39
e 21 41
e 21 47
e 21 49
e 21 50
e 21 54
e 21 55
e 21 60
e 21 63
e 21 64
e 21 68
e 21 75
e 21 88
e 21 93
e 21 108
e 21 116
e 21 125
e 22 28
e 22 29
e 22 30
e 22 31
e 22 32
e 22 33
e 22 34
e 22 36
e 22 38
e 22 39
e 22 40
e 22 41
e 22 42
e 22 45
e 22 47
e 22 50
e 22 51
e 22 57
e 22 59
e 22 60
e 22 63
e 22 65
e 22 68
e 22 70
e 22 72
e 22 73
e 22 77
e 22 80
e 22 82
e 22 85
e 22 98
e 22 102
e 22 103
e 22 106
e 22 113
e 22 117
e 22 118
e 22 125
e 22 126
e 22 127
e 23 29
e 23 30
e 23 35
e 23 37
e 23 50
e 23 51
e 23 53
e 23 58
e 23 61
e 23 66
e 23 75
e 23 81
e 23 83
e 23 86
e 23 91
e 23 109
e 23 113
e 23 121
e 23 124
e 24 28
e 24 29
e 24 31
e 24 32
e 24 34
e 24 36
e 24 38
e 24 40
e 24 46
e 24 48
e 24 53
e 24 56
e 24 58
e 24 59
e 24 62
e 24 67
e 24 80
e 24 91
e 24 111
e 24 123
e 25 28
e 25 30
e 25 32
e 25 34
e 25 35
e 25 36
e 25 44
e 25 45
e 25 52
e 25 62
e 25 66
e 25 67
e 25 77
e 25 79
e 25 80
e 25 81
e 25 92
e 25 93
e 25 95
e 25 102
e 25 106
e 25 110
e 26 28
e 26 29
e 26 30
e 26 31
e 26 32
e 26 33
e 26 35
e 26 37
e 26 38
e 26 39
e 26 40
e 26 41
e 26 43
e 26 44
e 26 46
e 26 51
e 26 56
e 26 57
e 26 58
e 26 69
e 26 73
e 26 82
e 26 84
e 26 114
e 26 119
e 26 123
e 26 130
e 27 28
e 27 29
e 27 30
e 27 31
e 27 32
e 27 35
e 27 37
e 27 39
e 27 40
e 27 48
e 27 49
e 27 51
e 27 57
e 27 63
e 27 68
e 27 76
e 27 77
e 27 80
e 27 97
e 27 101
e 27 105
e 27 107
e 27 108
e 27 116
e 27 119
e 27 129
e 28 29
e 28 30
e 28 31
e 28 32
e 28 33
e 28 34
e 28 35
e 28 36
e 28 37
e 28 38
e 28 39
e 28 40
e 28 41
e 28 42
e 28 43
e 28 44
e 28 45
e 28 46
e 28 48
e 28 49
e 28 50
e 28 52
e 28 53
e 28 54
e 28 55
e 28 56
e 28 57
e 28 59
e 28 60
e 28 61
e 28 62
e 28 63
e 28 64
e 28 65
e 28 67
e 28 68
e 28 69
e 28 71
e 28 73
e 28 74
e 28 76
e 28 78
e 28 79
e 28 83
e 28 84
e 28 89
e 28 90
e 28 94
e 28 95
e 28 97
e 28 103
e 28 109
e 28 110
e 28 112
e 28 113
e 28 114
e 28 115
e 28 121
e 28 125
e 28 126
e 28 128
e 28 129
e 28 130
e 29 30
e 29 31
e 29 32
e 29 33
e 29 34
e 29 35
e 29 36
e 29 37
e 29 38
e 29 39
e 29 40
e 29 41
e 29 42
e 29 44
e 29 45
e 29 46
e 29 48
e 29 49
e 29 50
e 29 51
e 29 52
e 29 53
e 29 54
e 29 55
e 29 56
e 29 58
e 29 60
e 29 61
e 29 62
e 29 63
e 29 65
e 29 66
e 29 67
e 29 68
e 29 69
e 29 70
e 29 71
e 29 73
e 29 75
e 29 77
e 29 78
e 29 79
e 29 81
e 29 82
e 29 83
e 29 84
e 29 87
e 29 88
e 29 89
e 29 91
e 29 93
e 29 95
e 29 96
e 29 97
e 29 107
e 29 108
e 29 110
e 29 111
e 29 116
e 29 121
e 29 122
e 29 126
e 29 128
e 29 130
e 30 31
e 30 32
e 30 33
e 30 34
e 30 35
e 30 36
e 30 37
e 30 38
e 30 39
e 30 40
e 30 41
e 30 42
e 30 43
e 30 44
e 30 45
e 30 47
e 30 48
e 30 50
e 30 52
e 30 54
e 30 55
e 30 57
e 30 58
e 30 59
e 30 61
e 30 63
e 30 64
e 30 66
e 30 67
e 30 68
e 30 70
e 30 71
e 30 72
e 30 73
e 30 74
e 30 75
e 30 80
e 30 81
e 30 82
e 30 83
e 30 85
e 30 88
e 30 89
e 30 94
e 30 95
e 30 97
e 30 100
e 30 101
e 30 104
e 30 105
e 30 106
e 30 108
e 30 110
e 30 111
e 30 116
e 30 124
e 30 127
e 31 32
e 31 33
e 31 34
e 31 35
e 31 36
e 31 37
e 31 38
e 31 39
e 31 41
e 31 42
e 31 43
e 31 44
e 31 45
e 31 46
e 31 47
e 31 49
e 31 50
e 31 51
e 31 52
e 31 56
e 31 57
e 31 58
e 31 59
e 31 61
e 31 63
e 31 64
e 31 65
e 31 68
e 31 69
e 31 71
e 31 72
e 31 74
e 31 76
e 31 80
e 31 83
e 31 84
e 31 85
e 31 86
e 31 87
e 31 88
e 31 89
e 31 92
e 31 93
e 31 95
e 31 96
e 31 97
e 31 99
e 31 101
e 31 102
e 31 104
e 31 106
e 31 110
e 31 115
e 31 116
e 31 119
e 31 120
e 31 122
e 31 123
e 31 124
e 31 126
e 31 127
e 31 128
e 31 129
e 32 33
e 32 34
e 32 35
e 32 36
e 32 37
e 32 38
e 32 39
e 32 40
e 32 41
e 32 42
e 32 43
e 32 44
e 32 45
e 32 46
e 32 47
e 32 48
e 32 49
e 32 50
e 32 52
e 32 53
e 32 54
e 32 56
e 32 57
e 32 58
e 32 59
e 32 60
e 32 61
e 32 63
e 32 64
e 32 65
e 32 66
e 32 68
e 32 69
e 32 73
e 32 74
e 32 75
e 32 79
e 32 83
e 32 84
e 32 88
e 32 89
e 32 92
e 32 94
e 32 96
e 32 99
e 32 101
e 32 104
e 32 106
e 32 107
e 32 108
e 32 110
e 32 111
e 32 114
e 32 115
e 32 117
e 32 118
e 32 120
e 32 121
e 32 123
e 32 126
e 32 127
e 32 128
e 33 34
e 33 35
e 33 36
e 33 37
e 33 38
e 33 39
e 33 40
e 33 41
e 33 42
e 33 43
e 33 44
e 33 45
e 33 46
e 33 47
e 33 49
e 33 50
e 33 51
e 33 52
e 33 53
e 33 55
e 33 58
e 33 60
e 33 64
e 33 67
e 33 71
e 33 72
e 33 75
e 33 76
e 33 77
e 33 80
e 33 81
e 33 82
e 33 86
e 33 87
e 33 88
e 33 91
e 33 99
e 33 101
e 33 104
e 33 109
e 33 110
e 33 111
e 33 114
e 33 127
e 33 128
e 34 35
e 34 36
e 34 37
e 34 38
e 34 39
e 34 40
e 34 41
e 34 42
e 34 43
e 34 44
e 34 45
e 34 49
e 34 50
e 34 51
e 34 52
e 34 53
e 34 54
e 34 56
e 34 59
e 34 60
e 34 62
e 34 63
e 34 65
e 34 67
e 34 68
e 34 69
e 34 70
e 34 73
e 34 75
e 34 77
e 34 82
e 34 83
e 34 86
e 34 88
e 34 89
e 34 92
e 34 97
e 34 98
e 34 99
e 34 100
e 34 102
e 34 105
e 34 107
e 34 109
e 34 110
e 34 111
e 34 112
e 34 117
e 34 118
e 34 122
e 34 126
e 34 128
e 34 129
e 35 36
e 35 37
e 35 38
e 35 39
e 35 40
e 35 42
e 35 43
e 35 44
e 35 45
e 35 46
e 35 47
e 35 49
e 35 50
e 35 52
e 35 53
e 35 54
e 35 55
e 35 56
e 35 58
e 35 59
e 35 60
e 35 62
e 35 63
e 35 64
e 35 66
e 35 68
e 35 69
e 35 73
e 35 77
e 35 78
e 35 79
e 35 80
e 35 81
e 35 82
e 35 83
e 35 85
e 35 86
e 35 87
e 35 93
e 35 98
e 35 100
e 35 101
e 35 104
e 35 112
e 35 113
e 35 114
e 35 115
e 35 123
e 35 125
e 35 127
e 35 128
e 35 130
e 36 37
e 36 39
e 36 40
e 36 41
e 36 42
e 36 43
e 36 45
e 36 46
e 36 47
e 36 50
e 36 51
e 36 52
e 36 53
e 36 54
e 36 55
e 36 56
e 36 60
e 36 61
e 36 66
e 36 67
e 36 69
e 36 70
e 36 75
e 36 76
e 36 77
e 36 78
e 36 82
e 36 84
e 36 86
e 36 88
e 36 89
e 36 90
e 36 91
e 36 95
e 36 96
e 36 107
e 36 112
e 36 114
e 36 116
e 36 117
e 36 118
e 36 120
e 36 121
e 36 124
e 36 125
e 36 130
e 37 38
e 37 39
e 37 40
e 37 41
e 37 42
e 37 43
e 37 44
e 37 45
e 37 46
e 37 47
e 37 48
e 37 49
e 37 50
e 37 51
e 37 52
e 37 53
e 37 54
e 37 57
e 37 60
e 37 63
e 37 64
e 37 65
e 37 66
e 37 67
e 37 70
e 37 74
e 37 75
e 37 76
e 37 82
e 37 85
e 37 88
e 37 89
e 37 92
e 37 94
e 37 96
e 37 97
e 37 99
e 37 105
e 37 106
e 37 107
e 37 108
e 37 109
e 37 111
e 37 113
e 37 116
e 37 119
e 37 121
e 37 123
e 37 124
e 37 125
e 38 39
e 38 40
e 38 41
e 38 43
e 38 45
e 38 46
e 38 48
e 38 49
e 38 54
e 38 55
e 38 56
e 38 59
e 38 63
e 38 65
e 38 67
e 38 68
e 38 70
e 38 71
e 38 72
e 38 73
e 38 74
e 38 77
e 38 78
e 38 79
e 38 81
e 38 84
e 38 85
e 38 86
e 38 88
e 38 89
e 38 90
e 38 91
e 38 92
e 38 94
e 38 96
e 38 97
e 38 99
e 38 100
e 38 112
e 38 113
e 38 114
e 38 118
e 38 119
e 38 121
e 38 122
e 38 123
e 38 127
e 38 129
e 38 130
e 39 40
e 39 41
e 39 42
e 39 43
e 39 44
e 39 45
e 39 46
e 39 47
e 39 48
e 39 49
e 39 50
e 39 51
e 39 52
e 39 53
e 39 54
e 39 58
e 39 59
e 39 61
e 39 62
e 39 64
e 39 65
e 39 66
e 39 67
e 39 68
e 39 70
e 39 71
e 39 72
e 39 74
e 39 76
e 39 77
e 39 80
e 39 82
e 39 85
e 39 86
e 39 90
e 39 94
e 39 96
e 39 97
e 39 103
e 39 110
e 39 111
e 39 112
e 39 114
e 39 115
e 39 118
e 39 124
e 39 129
e 39 130
e 40 42
e 40 44
e 40 45
e 40 46
e 40 47
e 40 50
e 40 51
e 40 52
e 40 54
e 40 55
e 40 57
e 40 58
e 40 61
e 40 62
e 40 65
e 40 67
e 40 71
e 40 72
e 40 73
e 40 74
e 40 75
e 40 76
e 40 77
e 40 85
e 40 87
e 40 88
e 40 90
e 40 91
e 40 93
e 40 94
e 40 95
e 40 98
e 40 101
e 40 103
e 40 106
e 40 111
e 40 113
e 40 118
e 40 123
e 40 124
e 40 125
e 41 42
e 41 43
e 41 44
e 41 45
e 41 49
e 41 51
e 41 52
e 41 53
e 41 54
e 41 55
e 41 56
e 41 57
e 41 61
e 41 64
e 41 67
e 41 72
e 41 75
e 41 77
e 41 78
e 41 82
e 41 83
e 41 86
e 41 89
e 41 91
e 41 94
e 41 96
e 41 99
e 41 101
e 41 106
e 41 109
e 41 114
e 41 116
e 41 119
e 41 121
e 41 124
e 41 125
e 41 130
e 42 44
e 42 46
e 42 47
e 42 49
e 42 50
e 42 51
e 42 52
e 42 53
e 42 55
e 42 57
e 42 60
e 42 61
e 42 63
e 42 64
e 42 65
e 42 69
e 42 70
e 42 71
e 42 74
e 42 76
e 42 77
e 42 78
e 42 82
e 42 84
e 42 85
e 42 86
e 42 90
e 42 91
e 42 95
e 42 96
e 42 98
e 42 99
e 42 101
e 42 104
e 42 106
e 42 107
e 42 109
e 42 110
e 42 112
e 42 113
e 42 114
e 42 115
e 42 116
e 42 119
e 42 120
e 42 121
e 42 122
e 42 123
e 42 124
e 43 44
e 43 45
e 43 46
e 43 47
e 43 48
e 43 50
e 43 53
e 43 55
e 43 57
e 43 58
e 43 60
e 43 61
e 43 62
e 43 64
e 43 65
e 43 69
e 43 70
e 43 71
e 43 76
e 43 79
e 43 80
e 43 86
e 43 89
e 43 90
e 43 91
e 43 94
e 43 96
e 43 98
e 43 99
e 43 109
e 43 111
e 43 115
e 43 116
e 43 122
e 44 46
e 44 47
e 44 48
e 44 49
e 44 51
e 44 52
e 44 53
e 44 55
e 44 56
e 44 60
e 44 61
e 44 62
e 44 66
e 44 69
e 44 70
e 44 72
e 44 73
e 44 74
e 44 75
e 44 77
e 44 79
e 44 80
e 44 82
e 44 84
e 44 85
e 44 86
e 44 89
e 44 92
e 44 95
e 44 98
e 44 99
e 44 100
e 44 102
e 44 103
e 44 107
e 44 110
e 44 113
e 44 115
e 44 120
e 44 125
e 44 127
e 44 128
e 44 130
e 45 46
e 45 49
e 45 51
e 45 52
e 45 53
e 45 54
e 45 56
e 45 57
e 45 59
e 45 62
e 45 63
e 45 65
e 45 68
e 45 70
e 45 71
e 45 74
e 45 77
e 45 80
e 45 83
e 45 86
e 45 88
e 45 89
e 45 92
e 45 94
e 45 95
e 45 96
e 45 97
e 45 99
e 45 100
e 45 101
e 45 106
e 45 107
e 45 110
e 45 111
e 45 112
e 46 47
e 46 53
e 46 54
e 46 56
e 46 57
e 46 58
e 46 59
e 46 60
e 46 61
e 46 63
e 46 64
e 46 66
e 46 70
e 46 77
e 46 79
e 46 81
e 46 85
e 46 93
e 46 96
e 46 101
e 46 103
e 46 105
e 46 110
e 46 112
e 46 113
e 46 115
e 46 118
e 46 119
e 46 121
e 46 125
e 46 128
e 46 129
e 47 48
e 47 49
e 47 51
e 47 53
e 47 54
e 47 55
e 47 56
e 47 57
e 47 58
e 47 59
e 47 62
e 47 63
e 47 65
e 47 68
e 47 69
e 47 71
e 47 75
e 47 76
e 47 77
e 47 78
e 47 80
e 47 81
e 47 82
e 47 85
e 47 90
e 47 91
e 47 93
e 47 94
e 47 97
e 47 98
e 47 99
e 47 100
e 47 104
e 47 105
e 47 107
e 47 108
e 47 112
e 47 114
e 47 122
e 47 127
e 48 49
e 48 52
e 48 55
e 48 57
e 48 58
e 48 59
e 48 60
e 48 69
e 48 76
e 48 81
e 48 83
e 48 91
e 48 96
e 48 113
e 48 114
e 48 125
e 48 126
e 49 54
e 49 55
e 49 57
e 49 64
e 49 65
e 49 68
e 49 71
e 49 72
e 49 76
e 49 82
e 49 89
e 49 95
e 49 97
e 49 98
e 49 99
e 49 106
e 49 113
e 49 119
e 49 129
e 50 51
e 50 53
e 50 57
e 50 59
e 50 61
e 50 64
e 50 67
e 50 70
e 50 71
e 50 72
e 50 74
e 50 76
e 50 78
e 50 79
e 50 80
e 50 81
e 50 83
e 50 84
e 50 85
e 50 87
e 50 91
e 50 92
e 50 95
e 50 97
e 50 101
e 50 104
e 50 106
e 50 107
e 50 110
e 50 112
e 50 130
e 51 54
e 51 56
e 51 58
e 51 59
e 51 61
e 51 66
e 51 72
e 51 74
e 51 75
e 51 77
e 51 79
e 51 81
e 51 83
e 51 84
e 51 88
e 51 89
e 51 92
e 51 94
e 51 95
e 51 98
e 51 100
e 51 111
e 51 113
e 51 117
e 51 119
e 51 120
e 51 122
e 51 123
e 51 126
e 51 129
e 51 130
e 52 54
e 52 55
e 52 57
e 52 58
e 52 59
e 52 61
e 52 62
e 52 63
e 52 65
e 52 66
e 52 67
e 52 68
e 52 71
e 52 72
e 52 74
e 52 79
e 52 83
e 52 85
e 52 87
e 52 88
e 52 93
e 52 102
e 52 104
e 52 105
e 52 106
e 52 111
e 52 115
e 52 121
e 52 124
e 52 125
e 52 127
e 53 54
e 53 55
e 53 56
e 53 58
e 53 59
e 53 60
e 53 68
e 53 73
e 53 76
e 53 85
e 53 87
e 53 89
e 53 94
e 53 98
e 53 101
e 53 102
e 53 104
e 53 105
e 53 106
e 53 108
e 54 55
e 54 59
e 54 62
e 54 64
e 54 65
e 54 66
e 54 67
e 54 69
e 54 70
e 54 72
e 54 74
e 54 77
e 54 79
e 54 80
e 54 84
e 54 85
e 54 86
e 54 87
e 54 90
e 54 94
e 54 95
e 54 98
e 54 100
e 54 101
e 54 105
e 54 106
e 54 109
e 54 111
e 54 113
e 54 120
e 54 121
e 54 125
e 54 130
e 55 56
e 55 57
e 55 58
e 55 61
e 55 62
e 55 63
e 55 64
e 55 65
e 55 70
e 55 71
e 55 72
e 55 79
e 55 83
e 55 84
e 55 86
e 55 87
e 55 90
e 55 93
e 55 96
e 55 97
e 55 104
e 55 111
e 55 115
e 55 118
e 55 121
e 55 125
e 55 128
e 56 59
e 56 61
e 56 63
e 56 65
e 56 66
e 56 69
e 56 74
e 56 78
e 56 81
e 56 82
e 56 84
e 56 87
e 56 90
e 56 94
e 56 99
e 56 103
e 56 104
e 56 107
e 56 109
e 56 110
e 56 121
e 56 123
e 56 124
e 56 129
e 56 130
e 57 60
e 57 61
e 57 65
e 57 66
e 57 67
e 57 72
e 57 73
e 57 76
e 57 77
e 57 79
e 57 80
e 57 93
e 57 97
e 57 100
e 57 105
e 57 107
e 57 108
e 57 115
e 57 120
e 57 123
e 57 127
e 58 60
e 58 62
e 58 64
e 58 66
e 58 69
e 58 70
e 58 74
e 58 75
e 58 78
e 58 82
e 58 84
e 58 86
e 58 87
e 58 88
e 58 90
e 58 91
e 58 92
e 58 96
e 58 105
e 58 107
e 58 108
e 58 109
e 58 114
e 58 117
e 58 118
e 58 119
e 58 120
e 58 126
e 59 60
e 59 69
e 59 70
e 59 79
e 59 84
e 59 85
e 59 87
e 59 90
e 59 92
e 59 93
e 59 102
e 59 106
e 59 113
e 59 123
e 59 124
e 59 129
e 60 62
e 60 67
e 60 69
e 60 74
e 60 75
e 60 76
e 60 81
e 60 82
e 60 94
e 60 97
e 60 99
e 60 108
e 60 117
e 60 125
e 61 62
e 61 63
e 61 66
e 61 69
e 61 70
e 61 72
e 61 73
e 61 79
e 61 80
e 61 87
e 61 90
e 61 92
e 61 94
e 61 95
e 61 96
e 61 98
e 61 102
e 61 108
e 61 111
e 61 113
e 61 116
e 61 119
e 61 120
e 61 126
e 61 128
e 61 129
e 62 66
e 62 68
e 62 69
e 62 72
e 62 73
e 62 78
e 62 79
e 62 83
e 62 87
e 62 95
e 62 96
e 62 97
e 62 102
e 62 108
e 62 111
e 62 116
e 62 118
e 62 120
e 62 125
e 63 64
e 63 65
e 63 76
e 63 83
e 63 91
e 63 94
e 63 97
e 63 99
e 63 104
e 63 105
e 63 113
e 63 116
e 63 117
e 63 119
e 63 121
e 63 126
e 63 128
e 63 129
e 64 66
e 64 67
e 64 69
e 64 73
e 64 76
e 64 82
e 64 91
e 64 99
e 64 100
e 64 102
e 64 103
e 64 106
e 64 110
e 64 115
e 64 117
e 64 119
e 64 125
e 64 130
e 65 67
e 65 70
e 65 71
e 65 80
e 65 81
e 65 83
e 65 84
e 65 85
e 65 93
e 65 99
e 65 100
e 65 102
e 65 105
e 65 107
e 65 110
e 65 118
e 65 122
e 66 71
e 66 75
e 66 82
e 66 83
e 66 86
e 66 88
e 66 92
e 66 95
e 66 98
e 66 102
e 66 109
e 66 113
e 66 120
e 66 123
e 66 125
e 66 127
e 66 130
e 67 69
e 67 72
e 67 76
e 67 78
e 67 81
e 67 91
e 67 92
e 67 96
e 67 105
e 67 107
e 67 108
e 67 122
e 67 123
e 67 129
e 68 73
e 68 84
e 68 87
e 68 94
e 68 96
e 68 100
e 68 103
e 68 109
e 69 70
e 69 79
e 69 87
e 69 88
e 69 91
e 69 92
e 69 93
e 69 106
e 69 107
e 69 108
e 69 109
e 69 111
e 69 114
e 69 118
e 69 124
e 69 126
e 69 130
e 70 71
e 70 72
e 70 73
e 70 74
e 70 77
e 70 78
e 70 80
e 70 84
e 70 98
e 70 104
e 70 108
e 70 113
e 70 118
e 70 122
e 70 124
e 70 125
e 70 128
e 71 73
e 71 88
e 71 90
e 71 91
e 71 92
e 71 93
e 71 98
e 71 100
e 71 103
e 71 111
e 71 112
e 71 113
e 71 129
e 72 80
e 72 86
e 72 90
e 72 95
e 72 99
e 72 100
e 72 106
e 72 114
e 72 121
e 72 122
e 72 128
e 73 74
e 73 75
e 73 78
e 73 79
e 73 80
e 73 81
e 73 102
e 73 103
e 73 109
e 73 110
e 73 114
e 73 123
e 74 76
e 74 79
e 74 80
e 74 84
e 74 86
e 74 88
e 74 91
e 74 93
e 74 94
e 74 98
e 74 105
e 74 122
e 74 130
e 75 85
e 75 86
e 75 89
e 75 90
e 75 94
e 75 101
e 75 103
e 75 108
e 75 113
e 75 115
e 75 118
e 75 124
e 75 126
e 75 128
e 76 77
e 76 81
e 76 87
e 76 89
e 76 92
e 76 103
e 76 112
e 76 116
e 76 118
e 76 120
e 77 79
e 77 86
e 77 87
e 77 91
e 77 94
e 77 99
e 77 104
e 77 115
e 77 122
e 77 124
e 77 130
e 78 80
e 78 84
e 78 89
e 78 98
e 78 100
e 78 102
e 78 104
e 78 105
e 78 110
e 78 112
e 78 118
e 78 126
e 78 128
e 79 81
e 79 83
e 79 85
e 79 88
e 79 89
e 79 92
e 79 93
e 79 96
e 79 97
e 79 103
e 79 104
e 79 111
e 79 112
e 79 113
e 79 116
e 79 125
e 79 130
e 80 83
e 80 92
e 80 102
e 80 104
e 80 120
e 81 87
e 81 98
e 81 100
e 81 105
e 81 109
e 81 117
e 81 119
e 81 120
e 81 123
e 81 125
e 81 130
e 82 84
e 82 87
e 82 90
e 82 97
e 82 104
e 82 105
e 82 112
e 82 114
e 82 119
e 82 120
e 82 121
e 82 123
e 82 126
e 82 129
e 83 86
e 83 90
e 83 92
e 83 93
e 83 99
e 83 113
e 83 114
e 83 121
e 83 126
e 84 85
e 84 89
e 84 104
e 84 105
e 84 115
e 85 88
e 85 89
e 85 90
e 85 95
e 85 96
e 85 97
e 85 98
e 85 99
e 85 100
e 85 102
e 85 103
e 85 104
e 85 106
e 85 108
e 85 110
e 85 112
e 85 113
e 85 115
e 85 118
e 85 119
e 85 121
e 85 127
e 86 90
e 86 92
e 86 102
e 86 103
e 86 109
e 86 114
e 86 126
e 87 89
e 87 99
e 87 100
e 87 109
e 87 116
e 87 120
e 87 121
e 87 126
e 87 129
e 88 91
e 88 95
e 88 100
e 88 103
e 88 104
e 88 108
e 88 110
e 88 113
e 88 115
e 88 122
e 88 126
e 89 91
e 89 110
e 89 125
e 89 127
e 89 128
e 90 98
e 90 101
e 90 112
e 90 114
e 90 130
e 91 97
e 91 98
e 91 103
e 91 110
e 91 111
e 91 116
e 92 96
e 92 107
e 92 112
e 92 120
e 92 126
e 93 94
e 93 95
e 93 101
e 93 107
e 93 110
e 93 117
e 93 118
e 93 122
e 93 124
e 93 126
e 94 95
e 94 105
e 94 107
e 94 112
e 94 117
e 94 123
e 94 127
e 94 128
e 95 100
e 95 106
e 95 108
e 95 112
e 95 119
e 95 122
e 95 124
e 95 126
e 96 101
e 96 102
e 96 103
e 96 105
e 96 115
e 96 117
e 96 120
e 96 122
e 96 123
e 96 127
e 96 129
e 97 105
e 97 109
e 97 112
e 97 116
e 97 118
e 97 119
e 97 121
e 97 129
e 97 130
e 98 101
e 98 103
e 98 107
e 99 108
e 99 111
e 99 114
e 99 121
e 99 123
e 99 124
e 100 103
e 100 104
e 100 109
e 100 111
e 101 116
e 101 122
e 101 124
e 101 130
e 103 104
e 103 108
e 103 117
e 103 120
e 104 106
e 104 109
e 104 119
e 105 108
e 105 123
e 105 130
e 106 126
e 106 127
e 106 128
e 106 130
e 107 117
e 107 127
e 108 110
e 108 114
e 108 115
e 108 118
e 108 119
e 108 122
e 108 128
e 109 114
e 109 115
e 110 115
e 110 123
e 110 124
e 110 127
e 110 128
e 111 127
e 113 114
e 113 116
e 113 117
e 113 118
e 113 123
e 114 117
e 114 120
e 115 122
e 117 119
e 117 120
e 117 122
e 117 125
e 118 121
e 120 123
e 123 124
e 123 125
e 124 128
e 125 129
e 126 127
